\ENCODING=ISO-8859-1
\Problem name: TSP

Minimize
 obj1: 4726.65314995717 x(1,2) + 1204.34920185136 x(1,3)
       + 6362.50210216075 x(1,4) + 3656.99124964772 x(1,5)
       + 4726.65314995717 x(2,1) + 3587.42316990901 x(2,3)
       + 2011.66224799294 x(2,4) + 1841.4008254587 x(2,5)
       + 1204.34920185136 x(3,1) + 3587.42316990901 x(3,2)
       + 5162.02770236658 x(3,4) + 2457.86574084102 x(3,5)
       + 6362.50210216075 x(4,1) + 2011.66224799294 x(4,2)
       + 5162.02770236658 x(4,3) + 2798.67289978661 x(4,5)
       + 3656.99124964772 x(5,1) + 1841.4008254587 x(5,2)
       + 2457.86574084102 x(5,3) + 2798.67289978661 x(5,4) + 0 y(1,1)
Subject To
 degreeIN(1)#0:         x(1,1) + x(2,1) + x(3,1) + x(4,1) + x(5,1)  = 1
 degreeIN(2)#1:         x(1,2) + x(2,2) + x(3,2) + x(4,2) + x(5,2)  = 1
 degreeIN(3)#2:         x(1,3) + x(2,3) + x(3,3) + x(4,3) + x(5,3)  = 1
 degreeIN(4)#3:         x(1,4) + x(2,4) + x(3,4) + x(4,4) + x(5,4)  = 1
 degreeIN(5)#4:         x(1,5) + x(2,5) + x(3,5) + x(4,5) + x(5,5)  = 1
 degreeOUT(1)#5:        x(1,1) + x(1,2) + x(1,3) + x(1,4) + x(1,5)  = 1
 degreeOUT(2)#6:        x(2,1) + x(2,2) + x(2,3) + x(2,4) + x(2,5)  = 1
 degreeOUT(3)#7:        x(3,1) + x(3,2) + x(3,3) + x(3,4) + x(3,5)  = 1
 degreeOUT(4)#8:        x(4,1) + x(4,2) + x(4,3) + x(4,4) + x(4,5)  = 1
 degreeOUT(5)#9:        x(5,1) + x(5,2) + x(5,3) + x(5,4) + x(5,5)  = 1
 outedges_from1_(1)#10: y(1,2) + y(1,3) + y(1,4) + y(1,5)  = 4
 in_m_out_(2)#11:       y(1,2) - y(2,1) - y(2,2) - y(2,3) - y(2,4) - y(2,5)
                        + y(3,2) + y(4,2) + y(5,2)  = 1
 in_m_out_(3)#12:       y(1,3) + y(2,3) - y(3,1) - y(3,2) - y(3,3) - y(3,4)
                        - y(3,5) + y(4,3) + y(5,3)  = 1
 in_m_out_(4)#13:       y(1,4) + y(2,4) + y(3,4) - y(4,1) - y(4,2) - y(4,3)
                        - y(4,4) - y(4,5) + y(5,4)  = 1
 in_m_out_(5)#14:       y(1,5) + y(2,5) + y(3,5) + y(4,5) - y(5,1) - y(5,2)
                        - y(5,3) - y(5,4) - y(5,5)  = 1
 coupling_(2,2)#15:     3 x(2,2) - y(2,2) >= 0
 coupling_(2,3)#16:     3 x(2,3) - y(2,3) >= 0
 coupling_(2,4)#17:     3 x(2,4) - y(2,4) >= 0
 coupling_(2,5)#18:     3 x(2,5) - y(2,5) >= 0
 coupling_(3,2)#19:     3 x(3,2) - y(3,2) >= 0
 coupling_(3,3)#20:     3 x(3,3) - y(3,3) >= 0
 coupling_(3,4)#21:     3 x(3,4) - y(3,4) >= 0
 coupling_(3,5)#22:     3 x(3,5) - y(3,5) >= 0
 coupling_(4,2)#23:     3 x(4,2) - y(4,2) >= 0
 coupling_(4,3)#24:     3 x(4,3) - y(4,3) >= 0
 coupling_(4,4)#25:     3 x(4,4) - y(4,4) >= 0
 coupling_(4,5)#26:     3 x(4,5) - y(4,5) >= 0
 coupling_(5,2)#27:     3 x(5,2) - y(5,2) >= 0
 coupling_(5,3)#28:     3 x(5,3) - y(5,3) >= 0
 coupling_(5,4)#29:     3 x(5,4) - y(5,4) >= 0
 coupling_(5,5)#30:     3 x(5,5) - y(5,5) >= 0
Bounds
      x(1,1) = 0
 0 <= x(1,2) <= 1
 0 <= x(1,3) <= 1
 0 <= x(1,4) <= 1
 0 <= x(1,5) <= 1
 0 <= x(2,1) <= 1
      x(2,2) = 0
 0 <= x(2,3) <= 1
 0 <= x(2,4) <= 1
 0 <= x(2,5) <= 1
 0 <= x(3,1) <= 1
 0 <= x(3,2) <= 1
      x(3,3) = 0
 0 <= x(3,4) <= 1
 0 <= x(3,5) <= 1
 0 <= x(4,1) <= 1
 0 <= x(4,2) <= 1
 0 <= x(4,3) <= 1
      x(4,4) = 0
 0 <= x(4,5) <= 1
 0 <= x(5,1) <= 1
 0 <= x(5,2) <= 1
 0 <= x(5,3) <= 1
 0 <= x(5,4) <= 1
      x(5,5) = 0
      y(1,1) = 0
 0 <= y(1,2) <= 4
 0 <= y(1,3) <= 4
 0 <= y(1,4) <= 4
 0 <= y(1,5) <= 4
      y(2,1) = 0
      y(2,2) = 0
 0 <= y(2,3) <= 4
 0 <= y(2,4) <= 4
 0 <= y(2,5) <= 4
      y(3,1) = 0
 0 <= y(3,2) <= 4
      y(3,3) = 0
 0 <= y(3,4) <= 4
 0 <= y(3,5) <= 4
      y(4,1) = 0
 0 <= y(4,2) <= 4
 0 <= y(4,3) <= 4
      y(4,4) = 0
 0 <= y(4,5) <= 4
      y(5,1) = 0
 0 <= y(5,2) <= 4
 0 <= y(5,3) <= 4
 0 <= y(5,4) <= 4
      y(5,5) = 0
Binaries
 x(1,1)  x(1,2)  x(1,3)  x(1,4)  x(1,5)  x(2,1)  x(2,2)  x(2,3)  x(2,4) 
 x(2,5)  x(3,1)  x(3,2)  x(3,3)  x(3,4)  x(3,5)  x(4,1)  x(4,2)  x(4,3) 
 x(4,4)  x(4,5)  x(5,1)  x(5,2)  x(5,3)  x(5,4)  x(5,5) 
Generals
 y(1,1)  y(1,2)  y(1,3)  y(1,4)  y(1,5)  y(2,1)  y(2,2)  y(2,3)  y(2,4) 
 y(2,5)  y(3,1)  y(3,2)  y(3,3)  y(3,4)  y(3,5)  y(4,1)  y(4,2)  y(4,3) 
 y(4,4)  y(4,5)  y(5,1)  y(5,2)  y(5,3)  y(5,4)  y(5,5) 
End
